\Generated by Cardinal Operations

Maximize
   11 x_1 + 8 x_2 + 19 x_3 + 9 x_4 + 5 x_5 + 8 x_6 + 5.65 x_7 + 11 x_8 
   + 4.93 x_9 + 7 x_10 + 7 x_11 + 8 x_12 + 1.72 x_13 + 2 x_14 + 7 x_15 
   + 8 x_16 + 2 x_17 + 2 x_18 + 1.7 x_19 + 15 x_20 + 9 x_21 + 8 x_22 
   + 7 x_23 + 11 x_24 + 11 x_25 + 11 x_26 + 16 x_27 + 16 x_28 + 3.7 x_29 
   + 3.65 x_30 + 8 x_31 + 6 x_32 + 11 x_33 + 15 x_34 + 8 x_35 + 11 x_36 
   + 11 x_37 + 5 x_38 + 5.78 x_39 + 11 x_40 + 13 x_41 + 3.79 x_42 + 9 x_43 
   + 7 x_44 + 7 x_45 + 9 x_46 + 8 x_47 + 8 x_48 + 11 x_49 + 12 x_50 
   + 8 x_51 + 9 x_52 + 14 x_53 + 9 x_54 + 8 x_55 + 5.87 x_56 + 5.91 x_57 
   + 11 x_58 + 18 x_59 + 9 x_60 + 4 x_61 + 12 x_62 + 5.74 x_63 + 4 x_64 
   + 8 x_65 + 1.85 x_66 + 6 x_67 + 11 x_68 
Subject To
 inventory_constraint: x_1 <= 5000
 x_2 <= 5000
 x_3 <= 5000
 x_4 <= 25000
 x_5 <= 25000
 x_6 <= 5000
 x_7 <= 100000
 x_8 <= 100000
 x_9 <= 1000
 x_10 <= 50
 x_11 <= 5000
 x_12 <= 50000
 x_13 <= 500
 x_14 <= 5000
 x_15 <= 500
 x_16 <= 50
 x_17 <= 1000
 x_18 <= 25000
 x_19 <= 5000
 x_20 <= 5000
 x_21 <= 500
 x_22 <= 5000
 x_23 <= 500
 x_24 <= 500
 x_25 <= 25000
 x_26 <= 5000
 x_27 <= 250
 x_28 <= 500
 x_29 <= 25000
 x_30 <= 100000
 x_31 <= 100000
 x_32 <= 50000
 x_33 <= 50000
 x_34 <= 25000
 x_35 <= 50000
 x_36 <= 25000
 x_37 <= 50000
 x_38 <= 500000
 x_39 <= 25000
 x_40 <= 50000
 x_41 <= 25000
 x_42 <= 100000
 x_43 <= 5000
 x_44 <= 250000
 x_45 <= 50000
 x_46 <= 100000
 x_47 <= 100000
 x_48 <= 100000
 x_49 <= 5000
 x_50 <= 5000
 x_51 <= 50000
 x_52 <= 50000
 x_53 <= 25000
 x_54 <= 100000
 x_55 <= 100000
 x_56 <= 100000
 x_57 <= 5000
 x_58 <= 500
 x_59 <= 500
 x_60 <= 25000
 x_61 <= 50000
 x_62 <= 100000
 x_63 <= 100000
 x_64 <= 25000
 x_65 <= 500
 x_66 <= 1000
 x_67 <= 5000
 x_68 <= 100000
 demand_constraint: x_1 <= 1357
 x_2 <= 1363
 x_3 <= 1269
 x_4 <= 6500
 x_5 <= 6335
 x_6 <= 1283
 x_7 <= 27327
 x_8 <= 25600
 x_9 <= 264
 x_10 <= 14
 x_11 <= 1484
 x_12 <= 13124
 x_13 <= 123
 x_14 <= 1430
 x_15 <= 130
 x_16 <= 14
 x_17 <= 293
 x_18 <= 6770
 x_19 <= 1325
 x_20 <= 1377
 x_21 <= 139
 x_22 <= 1350
 x_23 <= 138
 x_24 <= 122
 x_25 <= 6577
 x_26 <= 1455
 x_27 <= 72
 x_28 <= 135
 x_29 <= 6531
 x_30 <= 26650
 x_31 <= 27115
 x_32 <= 12486
 x_33 <= 12367
 x_34 <= 6194
 x_35 <= 14307
 x_36 <= 6321
 x_37 <= 13833
 x_38 <= 144944
 x_39 <= 6319
 x_40 <= 13849
 x_41 <= 6875
 x_42 <= 29273
 x_43 <= 1207
 x_44 <= 62890
 x_45 <= 14465
 x_46 <= 25467
 x_47 <= 24105
 x_48 <= 25594
 x_49 <= 1229
 x_50 <= 1459
 x_51 <= 13071
 x_52 <= 13056
 x_53 <= 6170
 x_54 <= 24746
 x_55 <= 27118
 x_56 <= 29149
 x_57 <= 1459
 x_58 <= 136
 x_59 <= 130
 x_60 <= 6720
 x_61 <= 14932
 x_62 <= 25913
 x_63 <= 27066
 x_64 <= 7453
 x_65 <= 142
 x_66 <= 270
 x_67 <= 1418
 x_68 <= 28189
Generals
 x_1  x_2  x_3  x_4  x_5  x_6  x_7  x_8  x_9  x_10  x_11  x_12  x_13  x_14  
 x_15  x_16  x_17  x_18  x_19  x_20  x_21  x_22  x_23  x_24  x_25  x_26  
 x_27  x_28  x_29  x_30  x_31  x_32  x_33  x_34  x_35  x_36  x_37  x_38  
 x_39  x_40  x_41  x_42  x_43  x_44  x_45  x_46  x_47  x_48  x_49  x_50  
 x_51  x_52  x_53  x_54  x_55  x_56  x_57  x_58  x_59  x_60  x_61  x_62  
 x_63  x_64  x_65  x_66  x_67  x_68  
END

